c A SAT instance generated from a 5-CNF formula that had 15 clauses and 10 variables
p cnf 10 15
-1 -7 8 2 10 0
3 -5 2 -1 9 0
8 7 3 1 -5 0
10 2 -8 -9 -7 0
-5 -10 -2 4 -3 0
8 -7 -6 4 3 0
-8 5 -4 9 -6 0
9 -3 1 6 -4 0
-8 7 -1 6 9 0
2 -7 -6 9 1 0
-5 -10 -4 1 -8 0
8 6 -2 4 -5 0
-1 -6 4 -10 -9 0
4 8 6 5 -10 0
-9 -3 -4 6 -10 0
